
Gurobi 9.1.2 (linux64, gurobi_cl) logging started Fri Jul 30 13:52:51 2021

Using license file /opt/gurobi/gurobi.lic
Set parameter TimeLimit to value 600
Set parameter MIPFocus to value 1
Set parameter LogFile to value 912-MIPFocus1-glass4-1.log
Set parameter Seed to value 1

Gurobi Optimizer version 9.1.2 build v9.1.2rc0 (linux64)
Copyright (c) 2021, Gurobi Optimization, LLC

Read MPS format model from file /nfs/models/mip/glass4.mps.bz2
Reading time = 0.00 seconds
glass4: 396 rows, 322 columns, 1815 nonzeros
Thread count: 4 physical cores, 8 logical processors, using up to 8 threads
Optimize a model with 396 rows, 322 columns and 1815 nonzeros
Model fingerprint: 0x0a9d9037
Variable types: 20 continuous, 302 integer (0 binary)
Coefficient statistics:
  Matrix range     [1e+00, 8e+06]
  Objective range  [1e+00, 1e+06]
  Bounds range     [1e+00, 8e+02]
  RHS range        [1e+00, 8e+06]
Presolve removed 6 rows and 6 columns
Presolve time: 0.00s
Presolved: 390 rows, 316 columns, 1803 nonzeros
Variable types: 19 continuous, 297 integer (297 binary)
Found heuristic solution: objective 3.133356e+09

Root relaxation: objective 8.000024e+08, 72 iterations, 0.00 seconds

    Nodes    |    Current Node    |     Objective Bounds      |     Work
 Expl Unexpl |  Obj  Depth IntInf | Incumbent    BestBd   Gap | It/Node Time

     0     0 8.0000e+08    0   72 3.1334e+09 8.0000e+08  74.5%     -    0s
H    0     0                    2.250018e+09 8.0000e+08  64.4%     -    0s
H    0     0                    2.150017e+09 8.0000e+08  62.8%     -    0s
     0     0 8.0000e+08    0   72 2.1500e+09 8.0000e+08  62.8%     -    0s
     0     0 8.0000e+08    0   72 2.1500e+09 8.0000e+08  62.8%     -    0s
H    0     0                    2.075018e+09 8.0000e+08  61.4%     -    0s
     0     0 8.0000e+08    0   75 2.0750e+09 8.0000e+08  61.4%     -    0s
H    0     0                    2.050017e+09 8.0000e+08  61.0%     -    0s
H    0     0                    1.900016e+09 8.0000e+08  57.9%     -    0s
H    0     0                    1.750016e+09 8.0000e+08  54.3%     -    0s
     0     0 8.0000e+08    0   78 1.7500e+09 8.0000e+08  54.3%     -    0s
     0     0 8.0000e+08    0   81 1.7500e+09 8.0000e+08  54.3%     -    0s
     0     0 8.0000e+08    0   94 1.7500e+09 8.0000e+08  54.3%     -    0s
     0     0 8.0000e+08    0   90 1.7500e+09 8.0000e+08  54.3%     -    0s
     0     0 8.0000e+08    0   91 1.7500e+09 8.0000e+08  54.3%     -    0s
     0     0 8.0000e+08    0  104 1.7500e+09 8.0000e+08  54.3%     -    0s
H    0     0                    1.700015e+09 8.0000e+08  52.9%     -    0s
     0     0 8.0000e+08    0  110 1.7000e+09 8.0000e+08  52.9%     -    0s
     0     0 8.0000e+08    0  101 1.7000e+09 8.0000e+08  52.9%     -    0s
     0     0 8.0000e+08    0   82 1.7000e+09 8.0000e+08  52.9%     -    0s
H    0     0                    1.700015e+09 8.0000e+08  52.9%     -    0s
     0     2 8.0000e+08    0   76 1.7000e+09 8.0000e+08  52.9%     -    0s
H    4     8                    1.700014e+09 8.0000e+08  52.9%  40.8    0s
H   37    40                    1.700014e+09 8.0001e+08  52.9%  27.6    0s
H  342   312                    1.700003e+09 8.0001e+08  52.9%   9.4    0s
H  489   444                    1.650015e+09 8.0001e+08  51.5%   9.1    0s
H  490   443                    1.625015e+09 8.0001e+08  50.8%   9.1    0s
H  527   521                    1.577793e+09 8.0001e+08  49.3%   9.0    0s
H  605   521                    1.560015e+09 8.0001e+08  48.7%   9.0    0s
H  606   539                    1.550015e+09 8.0001e+08  48.4%   9.1    1s
H  660   612                    1.510015e+09 8.0001e+08  47.0%   9.2    1s
  1647  1075 1.0000e+09   44   47 1.5100e+09 8.0001e+08  47.0%  17.0    5s
H 1850  1089                    1.480014e+09 8.0001e+08  45.9%  19.4    6s
H 1954  1001                    1.480013e+09 8.0001e+08  45.9%  19.8    7s
H 2203   976                    1.466681e+09 8.0001e+08  45.5%  22.9   10s
H 2433   933                    1.460014e+09 8.0001e+08  45.2%  23.7   12s
  2863  1034 9.0005e+08   30   73 1.4600e+09 8.0001e+08  45.2%  26.1   15s
  4831  2021 1.1000e+09   38   56 1.4600e+09 9.0001e+08  38.4%  30.5   20s
  7698  3421 1.2500e+09   45   38 1.4600e+09 9.0001e+08  38.4%  32.7   25s
 12217  5693 infeasible   24      1.4600e+09 9.0001e+08  38.4%  34.2   30s
 17015  7535 1.0000e+09   40   46 1.4600e+09 9.0001e+08  38.4%  35.1   35s
 21918  9499 9.0001e+08   38   48 1.4600e+09 9.0001e+08  38.4%  35.3   40s
 26665 11038 infeasible   36      1.4600e+09 9.0001e+08  38.4%  35.4   45s
 32219 13149 1.2000e+09   47   47 1.4600e+09 9.0001e+08  38.4%  35.1   51s
 36120 14591 9.6668e+08   38   49 1.4600e+09 9.0001e+08  38.4%  34.9   55s
*36178 14405              64    1.400014e+09 9.0001e+08  35.7%  34.9   55s
H39000 15456                    1.400014e+09 9.0001e+08  35.7%  35.0   58s
 41670 16333 1.1500e+09   42   36 1.4000e+09 9.0001e+08  35.7%  34.8   60s
 47480 18008 9.0001e+08   46   47 1.4000e+09 9.0001e+08  35.7%  34.5   65s
 52015 19478 infeasible   41      1.4000e+09 9.0001e+08  35.7%  34.3   70s
 56963 21234 9.0001e+08   52   33 1.4000e+09 9.0001e+08  35.7%  33.9   75s
 62185 22922 1.0000e+09   47   30 1.4000e+09 9.0001e+08  35.7%  33.6   80s
 66894 24518 1.0000e+09   51   42 1.4000e+09 9.0001e+08  35.7%  33.2   85s
 73364 27073 infeasible   45      1.4000e+09 9.0001e+08  35.7%  32.3   90s
 79584 29069 1.2000e+09   48   36 1.4000e+09 9.0001e+08  35.7%  32.1   96s
 87308 31945 infeasible   71      1.4000e+09 9.0001e+08  35.7%  31.1  100s
 93558 34886 1.4000e+09   64   20 1.4000e+09 9.0001e+08  35.7%  30.9  106s
H96026 34886                    1.400014e+09 9.0001e+08  35.7%  30.3  106s
 98868 35805 infeasible   53      1.4000e+09 9.0001e+08  35.7%  30.2  110s
 104466 37347 infeasible   57      1.4000e+09 9.0001e+08  35.7%  30.2  115s
 112670 39426 9.6668e+08   55   41 1.4000e+09 9.0001e+08  35.7%  29.9  120s
 119024 41700 9.0001e+08   64   38 1.4000e+09 9.0001e+08  35.7%  29.5  125s
 126608 44052 1.0000e+09   61   48 1.4000e+09 9.0001e+08  35.7%  29.0  130s
 131972 45147 infeasible   46      1.4000e+09 9.0001e+08  35.7%  29.0  135s
 138948 46603 infeasible   49      1.4000e+09 9.0001e+08  35.7%  28.9  140s
 145799 49433 9.3334e+08   53   41 1.4000e+09 9.0001e+08  35.7%  28.7  145s
 154116 51101 1.2500e+09   71   38 1.4000e+09 9.0001e+08  35.7%  28.4  150s
 159693 51728 infeasible   66      1.4000e+09 9.0001e+08  35.7%  28.3  155s
 168353 54252 1.1600e+09   62   38 1.4000e+09 9.0001e+08  35.7%  27.8  160s
 174164 55194 1.1333e+09   55   32 1.4000e+09 9.0001e+08  35.7%  27.9  165s
 181276 57002 1.0000e+09   54   43 1.4000e+09 9.0001e+08  35.7%  27.7  170s
 186494 57900 1.0667e+09   56   42 1.4000e+09 9.0001e+08  35.7%  27.7  175s
 191522 58852 infeasible   54      1.4000e+09 9.0001e+08  35.7%  27.7  180s
 199020 61545 1.2667e+09   64   37 1.4000e+09 9.0001e+08  35.7%  27.6  185s
 206591 62253 9.2084e+08   56   48 1.4000e+09 9.0001e+08  35.7%  27.3  190s
 210903 62840 infeasible   59      1.4000e+09 9.0001e+08  35.7%  27.4  195s
 220823 65234 infeasible   50      1.4000e+09 9.0001e+08  35.7%  27.1  200s
 225726 65776 1.2667e+09   57   58 1.4000e+09 9.0001e+08  35.7%  27.2  205s
 231028 66417 1.1889e+09   44   53 1.4000e+09 9.0001e+08  35.7%  27.2  210s
 239973 68067     cutoff   47      1.4000e+09 9.0001e+08  35.7%  27.0  215s
 244858 68895 1.0861e+09   50   41 1.4000e+09 9.0794e+08  35.1%  27.1  220s
 249324 69552 1.1250e+09   62   26 1.4000e+09 9.1819e+08  34.4%  27.2  225s
 257920 71470 1.0000e+09   45   38 1.4000e+09 9.2223e+08  34.1%  26.9  230s
 262272 71941 infeasible   59      1.4000e+09 9.3334e+08  33.3%  27.0  235s
 270326 73082 infeasible   81      1.4000e+09 9.3334e+08  33.3%  26.8  240s
 276320 74015 1.0000e+09   38   72 1.4000e+09 9.4965e+08  32.2%  26.8  245s
 281513 75161 infeasible   52      1.4000e+09 9.5001e+08  32.1%  26.9  251s
 287341 77166 1.3000e+09   46   51 1.4000e+09 9.5001e+08  32.1%  26.7  255s
 293295 77741 infeasible   45      1.4000e+09 9.5001e+08  32.1%  26.7  261s
 300710 79067 infeasible   52      1.4000e+09 9.5995e+08  31.4%  26.5  265s
 305563 79580 infeasible   67      1.4000e+09 9.6668e+08  31.0%  26.6  270s
 311678 81021 1.1500e+09   59   31 1.4000e+09 9.7501e+08  30.4%  26.5  275s
 317129 81228 9.7501e+08   56   42 1.4000e+09 9.7501e+08  30.4%  26.5  280s
 323914 81719 1.0000e+09   45   61 1.4000e+09 9.9967e+08  28.6%  26.5  285s
 327556 82677 infeasible   67      1.4000e+09 1.0000e+09  28.6%  26.7  290s
 331137 82611 1.4000e+09   37   35 1.4000e+09 1.0000e+09  28.6%  27.0  295s
 336034 83420 infeasible   41      1.4000e+09 1.0000e+09  28.6%  27.2  301s
 341118 83200 infeasible   64      1.4000e+09 1.0000e+09  28.6%  27.3  305s
 345345 83637 infeasible   52      1.4000e+09 1.0000e+09  28.6%  27.5  310s
 351361 84118 infeasible   61      1.4000e+09 1.0000e+09  28.6%  27.6  315s
 357568 83845 1.2000e+09   55   30 1.4000e+09 1.0000e+09  28.6%  27.7  320s
 361600 84181 infeasible   63      1.4000e+09 1.0000e+09  28.6%  27.8  325s
 366144 85465 1.0143e+09   43   49 1.4000e+09 1.0000e+09  28.6%  27.9  330s
 371185 86729 infeasible   84      1.4000e+09 1.0000e+09  28.6%  28.0  336s
 375553 87721 infeasible   54      1.4000e+09 1.0000e+09  28.6%  28.1  340s
 378992 88483 1.0000e+09   44   47 1.4000e+09 1.0000e+09  28.6%  28.1  346s
 382799 89315 1.0000e+09   42   58 1.4000e+09 1.0000e+09  28.6%  28.1  350s
 388124 90476 1.0000e+09   51   65 1.4000e+09 1.0000e+09  28.6%  28.2  355s
 393345 91330 1.2222e+09   41   39 1.4000e+09 1.0000e+09  28.6%  28.3  360s
 397714 92023 1.0231e+09   62   58 1.4000e+09 1.0000e+09  28.6%  28.3  365s
 402512 92995 1.1000e+09   63   38 1.4000e+09 1.0000e+09  28.6%  28.3  371s
*403475 92698              62    1.400013e+09 1.0000e+09  28.6%  28.3  371s
 408359 93502 infeasible   39      1.4000e+09 1.0000e+09  28.6%  28.3  375s
 414703 94610 1.0000e+09   43   44 1.4000e+09 1.0000e+09  28.6%  28.4  380s
*417438 94928              49    1.400013e+09 1.0000e+09  28.6%  28.4  382s
 420564 95339 1.2000e+09   63   42 1.4000e+09 1.0000e+09  28.6%  28.4  386s
 426816 96265 infeasible   56      1.4000e+09 1.0000e+09  28.6%  28.4  390s
 432664 97251 1.2500e+09   35   30 1.4000e+09 1.0000e+09  28.6%  28.4  395s
H434668 97157                    1.400013e+09 1.0000e+09  28.6%  28.4  396s
H435191 97293                    1.400013e+09 1.0000e+09  28.6%  28.4  397s
H436366 97374                    1.400013e+09 1.0000e+09  28.6%  28.4  398s
 438682 97665 1.1000e+09   49   34 1.4000e+09 1.0000e+09  28.6%  28.4  400s
H441506 70951                    1.200013e+09 1.0000e+09  16.7%  28.4  403s
 446518 67016 infeasible   43      1.2000e+09 1.0000e+09  16.7%  28.4  405s
 469303 47906 infeasible   55      1.2000e+09 1.0500e+09  12.5%  27.8  410s
 495780 25652 infeasible   59      1.2000e+09 1.1000e+09  8.33%  27.0  415s

Cutting planes:
  Gomory: 51
  Cover: 20
  Implied bound: 49
  MIR: 73
  Flow cover: 394
  GUB cover: 1
  Inf proof: 1
  RLT: 213
  Relax-and-lift: 192

Explored 509831 nodes (13471658 simplex iterations) in 416.81 seconds
Thread count was 8 (of 8 available processors)

Solution count 10: 1.20001e+09 1.40001e+09 1.40001e+09 ... 1.46001e+09

Optimal solution found (tolerance 1.00e-04)
Best objective 1.200012600000e+09, best bound 1.200003200000e+09, gap 0.0008%
